(set-info :origin "SVCOMP13 benchmarks generated by Arie Gurfinkel")
(set-info :status sat)
(set-logic HORN)
(declare-fun cp-rel-bb2.i.i37.i.i () Bool)
(declare-fun cp-rel-entry () Bool)
(declare-fun cp-rel-bb1.i.i (Real Real Real Real) Bool)
(assert |cp-rel-entry|)
(assert (forall ((?A Real) (?B Real) (?C Real) (?D Real) (?E Bool) )(let (($x125160 (and |cp-rel-entry| (<= ?D 1.0) (>= ?C 0.0) (<= ?C 0.0) (>= ?B 0.0) (<= ?B 0.0) (>= ?A 1.0) (<= ?A 1.0) (= ?E true) (>= ?D 1.0))))
(=> $x125160 (|cp-rel-bb1.i.i| ?A ?B ?C ?D))))
)
(assert (forall ((?A Real) (?B Real) (?C Real) (?D Real) (?E Real) (?F Real) (?G Real) (?H Real) (?I Bool) (?J Bool) (?K Bool) (?L Bool) (?M Bool) (?N Bool) (?O Real) (?P Real) (?Q Bool) (?R Bool) (?S Bool) (?T Bool) (?U Bool) (?V Bool) (?W Real) (?X Real) (?Y Bool) (?Z Bool) (?A1 Bool) (?B1 Bool) (?C1 Bool) (?D1 Bool) (?E1 Bool) (?F1 Bool) (?G1 Bool) (?H1 Bool) (?I1 Bool) (?J1 Bool) (?K1 Bool) (?L1 Real) (?M1 Real) (?N1 Bool) (?O1 Bool) (?P1 Bool) (?Q1 Bool) (?R1 Bool) (?S1 Bool) (?T1 Bool) (?U1 Bool) (?V1 Bool) (?W1 Bool) (?X1 Bool) (?Y1 Bool) (?Z1 Bool) (?A2 Real) (?B2 Real) (?C2 Real) (?D2 Real) (?E2 Real) (?F2 Bool) (?G2 Bool) (?H2 Bool) (?I2 Bool) (?J2 Bool) (?K2 Real) (?L2 Bool) (?M2 Real) (?N2 Real) (?O2 Bool) (?P2 Real) (?Q2 Real) (?R2 Bool) (?S2 Real) (?T2 Bool) (?U2 Bool) (?V2 Bool) (?W2 Bool) (?X2 Bool) (?Y2 Bool) (?Z2 Bool) (?A3 Bool) )(let (($x509373 (|cp-rel-bb1.i.i| ?E ?F ?G ?H)))
(let (($x626764 (= ?J2 (and ?A3 ?Z2))))
(let (($x875441 (or (not ?I) (and ?J ?K (not ?L)))))
(let (($x207885 (or (not ?I) ?K)))
(let (($x649498 (not ?M)))
(let (($x420329 (or $x649498 (and ?I ?N (<= ?O ?P) (>= ?O ?P)) (and ?J ?Q ?L (<= ?O ?D) (>= ?O ?D)))))
(let (($x341364 (or $x649498 (and ?N (not ?Q)) (and ?Q (not ?N)))))
(let (($x402109 (or (not ?R) (and ?M ?S (not ?T)))))
(let (($x362407 (or (not ?R) ?S)))
(let (($x27918 (not ?U)))
(let (($x771496 (or $x27918 (and ?R ?V (<= ?W ?X) (>= ?W ?X)) (and ?M ?Y ?T (<= ?W ?C) (>= ?W ?C)))))
(let (($x866824 (or $x27918 (and ?V (not ?Y)) (and ?Y (not ?V)))))
(let (($x41045 (or (not ?Z) (and ?U ?A1 ?B1))))
(let (($x61857 (or (not ?Z) ?A1)))
(let (($x156542 (or (not ?C1) (and ?Z ?D1 ?E1) (and ?U ?F1 (not ?B1)))))
(let (($x175534 (or (not ?C1) (and ?D1 (not ?F1)) (and ?F1 (not ?D1)))))
(let (($x900998 (or (not ?G1) (and ?C1 ?H1 (not ?I1)))))
(let (($x332894 (or (not ?G1) ?H1)))
(let (($x582988 (or (not ?J1) (and ?G1 ?K1 (<= ?L1 ?M1) (>= ?L1 ?M1)) (and ?C1 ?N1 ?I1 (<= ?L1 ?O) (>= ?L1 ?O)))))
(let (($x361669 (or (not ?J1) (and ?K1 (not ?N1)) (and ?N1 (not ?K1)))))
(let (($x301340 (or (not ?O1) (and ?J1 ?P1 (not ?Q1)))))
(let (($x132260 (or (not ?O1) ?P1)))
(let (($x226054 (or (not ?R1) (and ?O1 ?S1 ?I1))))
(let (($x423930 (or (not ?R1) ?S1)))
(let (($x308912 (or (not ?T1) (and ?O1 ?U1 (not ?I1)))))
(let (($x128610 (or (not ?T1) ?U1)))
(let (($x555305 (or (not ?V1) (and ?T1 ?W1 ?X1))))
(let (($x123249 (or (not ?V1) ?W1)))
(let (($x359378 (>= ?D2 0.0)))
(let (($x54810 (<= ?D2 0.0)))
(let (($x135384 (and ?Z ?I2 (not ?E1) (<= ?A2 0.0) (>= ?A2 0.0) (<= ?B2 0.0) (>= ?B2 0.0) (<= ?C2 ?O) (>= ?C2 ?O) $x54810 $x359378)))
(let (($x566874 (>= ?C2 ?L1)))
(let (($x155860 (<= ?C2 ?L1)))
(let (($x518025 (>= ?B2 ?A)))
(let (($x138761 (<= ?B2 ?A)))
(let (($x153297 (>= ?A2 ?B)))
(let (($x361692 (<= ?A2 ?B)))
(let (($x322978 (and ?J1 ?H2 ?Q1 $x361692 $x153297 $x138761 $x518025 $x155860 $x566874 (<= ?D2 ?B) (>= ?D2 ?B))))
(let (($x523870 (and ?V1 ?F2 $x361692 $x153297 $x138761 $x518025 $x155860 $x566874 (<= ?D2 ?B) (>= ?D2 ?B))))
(let (($x13901 (and ?R1 ?Z1 $x361692 $x153297 $x138761 $x518025 $x155860 $x566874 (<= ?D2 ?E2) (>= ?D2 ?E2))))
(let (($x573139 (not ?Y1)))
(let (($x153223 (or $x573139 $x13901 $x523870 (and ?T1 ?G2 (not ?X1) $x361692 $x153297 $x138761 $x518025 $x155860 $x566874 $x54810 $x359378) $x322978 $x135384)))
(let (($x848588 (or $x573139 (and ?Z1 (not ?F2) (not ?G2) (not ?H2) (not ?I2)) (and ?F2 (not ?Z1) (not ?G2) (not ?H2) (not ?I2)) (and ?G2 (not ?Z1) (not ?F2) (not ?H2) (not ?I2)) (and ?H2 (not ?Z1) (not ?F2) (not ?G2) (not ?I2)) (and ?I2 (not ?Z1) (not ?F2) (not ?G2) (not ?H2)))))
(let (($x849006 (= ?Y1 true)))
(let (($x287334 (= ?L (= ?K2 0.0))))
(let (($x168335 (= ?M2 (ite ?L2 1.0 0.0))))
(let (($x605907 (= ?T (= ?N2 0.0))))
(let (($x900405 (= ?X (ite ?O2 1.0 0.0))))
(let (($x168081 (= ?B1 (= ?P2 0.0))))
(let (($x86913 (= ?E1 (= ?Q2 0.0))))
(let (($x748513 (= ?R2 (not (<= ?O 0.0)))))
(let (($x193407 (= ?S2 (+ (~ 1.0) ?O))))
(let (($x181647 (= ?M1 (ite ?R2 ?S2 ?O))))
(let (($x468053 (= ?T2 (not (<= ?L1 1.0)))))
(let (($x501452 (= ?U2 (= ?W 0.0))))
(let (($x554374 (= ?V2 (= ?L1 0.0))))
(let (($x329364 (= ?X1 (and ?U2 ?V2))))
(let (($x357239 (= ?W2 (= ?C2 2.0))))
(let (($x645551 (= ?X2 (= ?D2 0.0))))
(let (($x234598 (= ?Y2 (or ?X2 ?W2))))
(let (($x49178 (= ?Z2 (not ?Y2))))
(let (($x251790 (= ?A3 (= ?A2 0.0))))
(let (($x548634 (and (|cp-rel-bb1.i.i| ?A ?B ?C ?D) $x251790 $x49178 $x234598 $x645551 $x357239 $x329364 $x554374 $x501452 (= ?E2 (ite ?T2 1.0 ?B)) $x468053 (= ?Q1 (= ?A 0.0)) $x181647 $x193407 $x748513 (= ?I1 (= ?B 0.0)) $x86913 $x168081 $x900405 (= ?O2 (= ?C 0.0)) $x605907 (= ?P (+ ?M2 ?D)) $x168335 (= ?L2 (not (<= 2.0 ?D))) $x287334 (>= ?H ?C2) (<= ?H ?C2) (>= ?G ?W) (<= ?G ?W) (>= ?F ?D2) (<= ?F ?D2) (>= ?E ?B2) (<= ?E ?B2) (not (= ?J2 true)) $x849006 $x848588 $x153223 $x123249 $x555305 $x128610 $x308912 $x423930 $x226054 $x132260 $x301340 $x361669 $x582988 $x332894 $x900998 $x175534 $x156542 $x61857 $x41045 $x866824 $x771496 $x362407 $x402109 $x341364 $x420329 $x207885 $x875441 $x626764)))
(=> $x548634 $x509373)))))))))))))))))))))))))))))))))))))))))))))))))))))))))))))))))
)
(assert (forall ((?A Real) (?B Real) (?C Real) (?D Real) (?E Bool) (?F Bool) (?G Bool) (?H Bool) (?I Bool) (?J Bool) (?K Real) (?L Real) (?M Bool) (?N Bool) (?O Bool) (?P Bool) (?Q Bool) (?R Bool) (?S Real) (?T Real) (?U Bool) (?V Bool) (?W Bool) (?X Bool) (?Y Bool) (?Z Bool) (?A1 Bool) (?B1 Bool) (?C1 Bool) (?D1 Bool) (?E1 Bool) (?F1 Bool) (?G1 Bool) (?H1 Real) (?I1 Real) (?J1 Bool) (?K1 Bool) (?L1 Bool) (?M1 Bool) (?N1 Bool) (?O1 Bool) (?P1 Bool) (?Q1 Bool) (?R1 Bool) (?S1 Bool) (?T1 Bool) (?U1 Bool) (?V1 Bool) (?W1 Real) (?X1 Real) (?Y1 Real) (?Z1 Real) (?A2 Real) (?B2 Bool) (?C2 Bool) (?D2 Bool) (?E2 Bool) (?F2 Bool) (?G2 Real) (?H2 Bool) (?I2 Real) (?J2 Real) (?K2 Bool) (?L2 Real) (?M2 Real) (?N2 Bool) (?O2 Real) (?P2 Bool) (?Q2 Bool) (?R2 Bool) (?S2 Bool) (?T2 Bool) (?U2 Bool) (?V2 Bool) (?W2 Bool) )(let (($x626764 (= ?F2 (and ?W2 ?V2))))
(let (($x875441 (or (not ?E) (and ?F ?G (not ?H)))))
(let (($x207885 (or (not ?E) ?G)))
(let (($x649498 (not ?I)))
(let (($x510570 (or $x649498 (and ?E ?J (<= ?K ?L) (>= ?K ?L)) (and ?F ?M ?H (<= ?K ?D) (>= ?K ?D)))))
(let (($x341364 (or $x649498 (and ?J (not ?M)) (and ?M (not ?J)))))
(let (($x402109 (or (not ?N) (and ?I ?O (not ?P)))))
(let (($x362407 (or (not ?N) ?O)))
(let (($x27918 (not ?Q)))
(let (($x236580 (or $x27918 (and ?N ?R (<= ?S ?T) (>= ?S ?T)) (and ?I ?U ?P (<= ?S ?C) (>= ?S ?C)))))
(let (($x866824 (or $x27918 (and ?R (not ?U)) (and ?U (not ?R)))))
(let (($x41045 (or (not ?V) (and ?Q ?W ?X))))
(let (($x61857 (or (not ?V) ?W)))
(let (($x156542 (or (not ?Y) (and ?V ?Z ?A1) (and ?Q ?B1 (not ?X)))))
(let (($x175534 (or (not ?Y) (and ?Z (not ?B1)) (and ?B1 (not ?Z)))))
(let (($x900998 (or (not ?C1) (and ?Y ?D1 (not ?E1)))))
(let (($x332894 (or (not ?C1) ?D1)))
(let (($x582988 (or (not ?F1) (and ?C1 ?G1 (<= ?H1 ?I1) (>= ?H1 ?I1)) (and ?Y ?J1 ?E1 (<= ?H1 ?K) (>= ?H1 ?K)))))
(let (($x361669 (or (not ?F1) (and ?G1 (not ?J1)) (and ?J1 (not ?G1)))))
(let (($x301340 (or (not ?K1) (and ?F1 ?L1 (not ?M1)))))
(let (($x132260 (or (not ?K1) ?L1)))
(let (($x226054 (or (not ?N1) (and ?K1 ?O1 ?E1))))
(let (($x423930 (or (not ?N1) ?O1)))
(let (($x308912 (or (not ?P1) (and ?K1 ?Q1 (not ?E1)))))
(let (($x128610 (or (not ?P1) ?Q1)))
(let (($x555305 (or (not ?R1) (and ?P1 ?S1 ?T1))))
(let (($x123249 (or (not ?R1) ?S1)))
(let (($x359378 (>= ?Z1 0.0)))
(let (($x54810 (<= ?Z1 0.0)))
(let (($x135384 (and ?V ?E2 (not ?A1) (<= ?W1 0.0) (>= ?W1 0.0) (<= ?X1 0.0) (>= ?X1 0.0) (<= ?Y1 ?K) (>= ?Y1 ?K) $x54810 $x359378)))
(let (($x566874 (>= ?Y1 ?H1)))
(let (($x155860 (<= ?Y1 ?H1)))
(let (($x287616 (>= ?X1 ?A)))
(let (($x112218 (<= ?X1 ?A)))
(let (($x205924 (>= ?W1 ?B)))
(let (($x39491 (<= ?W1 ?B)))
(let (($x487873 (and ?F1 ?D2 ?M1 $x39491 $x205924 $x112218 $x287616 $x155860 $x566874 (<= ?Z1 ?B) (>= ?Z1 ?B))))
(let (($x916006 (and ?R1 ?B2 $x39491 $x205924 $x112218 $x287616 $x155860 $x566874 (<= ?Z1 ?B) (>= ?Z1 ?B))))
(let (($x845797 (and ?N1 ?V1 $x39491 $x205924 $x112218 $x287616 $x155860 $x566874 (<= ?Z1 ?A2) (>= ?Z1 ?A2))))
(let (($x573139 (not ?U1)))
(let (($x462077 (or $x573139 $x845797 $x916006 (and ?P1 ?C2 (not ?T1) $x39491 $x205924 $x112218 $x287616 $x155860 $x566874 $x54810 $x359378) $x487873 $x135384)))
(let (($x848588 (or $x573139 (and ?V1 (not ?B2) (not ?C2) (not ?D2) (not ?E2)) (and ?B2 (not ?V1) (not ?C2) (not ?D2) (not ?E2)) (and ?C2 (not ?V1) (not ?B2) (not ?D2) (not ?E2)) (and ?D2 (not ?V1) (not ?B2) (not ?C2) (not ?E2)) (and ?E2 (not ?V1) (not ?B2) (not ?C2) (not ?D2)))))
(let (($x849006 (= ?U1 true)))
(let (($x268589 (= ?F2 true)))
(let (($x287334 (= ?H (= ?G2 0.0))))
(let (($x168335 (= ?I2 (ite ?H2 1.0 0.0))))
(let (($x605907 (= ?P (= ?J2 0.0))))
(let (($x900405 (= ?T (ite ?K2 1.0 0.0))))
(let (($x168081 (= ?X (= ?L2 0.0))))
(let (($x86913 (= ?A1 (= ?M2 0.0))))
(let (($x748513 (= ?N2 (not (<= ?K 0.0)))))
(let (($x193407 (= ?O2 (+ (~ 1.0) ?K))))
(let (($x181647 (= ?I1 (ite ?N2 ?O2 ?K))))
(let (($x468053 (= ?P2 (not (<= ?H1 1.0)))))
(let (($x501452 (= ?Q2 (= ?S 0.0))))
(let (($x554374 (= ?R2 (= ?H1 0.0))))
(let (($x329364 (= ?T1 (and ?Q2 ?R2))))
(let (($x357239 (= ?S2 (= ?Y1 2.0))))
(let (($x645551 (= ?T2 (= ?Z1 0.0))))
(let (($x234598 (= ?U2 (or ?T2 ?S2))))
(let (($x49178 (= ?V2 (not ?U2))))
(let (($x251790 (= ?W2 (= ?W1 0.0))))
(let (($x509373 (|cp-rel-bb1.i.i| ?A ?B ?C ?D)))
(let (($x352946 (and $x509373 $x251790 $x49178 $x234598 $x645551 $x357239 $x329364 $x554374 $x501452 (= ?A2 (ite ?P2 1.0 ?B)) $x468053 (= ?M1 (= ?A 0.0)) $x181647 $x193407 $x748513 (= ?E1 (= ?B 0.0)) $x86913 $x168081 $x900405 (= ?K2 (= ?C 0.0)) $x605907 (= ?L (+ ?I2 ?D)) $x168335 (= ?H2 (not (<= 2.0 ?D))) $x287334 $x268589 $x849006 $x848588 $x462077 $x123249 $x555305 $x128610 $x308912 $x423930 $x226054 $x132260 $x301340 $x361669 $x582988 $x332894 $x900998 $x175534 $x156542 $x61857 $x41045 $x866824 $x236580 $x362407 $x402109 $x341364 $x510570 $x207885 $x875441 $x626764)))
(=> $x352946 |cp-rel-bb2.i.i37.i.i|))))))))))))))))))))))))))))))))))))))))))))))))))))))))))))))))))
)
(assert (not cp-rel-bb2.i.i37.i.i))
(check-sat)
